Problem:    mf
Rows:       20
Columns:    17
Non-zeros:  36
Status:     OPTIMAL
Objective:  FLOW = 28 (MAXimum)

   No.   Row name   St   Activity     Lower bound   Upper bound    Marginal
------ ------------ -- ------------- ------------- ------------- -------------
     1 FLOW         B             28                             
     2 INTERNAL[2]  NS             0            -0             =            -1 
     3 INTERNAL[3]  NS             0            -0             =            -1 
     4 SOURCE[1]    NS             0            -0             =            -1 
     5 CAPACITY[1,1]
                    NU             0                          -0         < eps
     6 CAPACITY[1,2]
                    B             14                          14 
     7 CAPACITY[1,3]
                    B             14                          15 
     8 CAPACITY[1,4]
                    NU             0                          -0             1 
     9 CAPACITY[2,1]
                    NU             0                          -0         < eps
    10 CAPACITY[2,2]
                    NU             0                          -0         < eps
    11 CAPACITY[2,3]
                    NU             4                           4         < eps
    12 CAPACITY[2,4]
                    NU            10                          10             1 
    13 CAPACITY[3,1]
                    NU             0                          -0         < eps
    14 CAPACITY[3,2]
                    NU             0                          -0         < eps
    15 CAPACITY[3,3]
                    NU             0                          -0         < eps
    16 CAPACITY[3,4]
                    NU            18                          18             1 
    17 CAPACITY[4,1]
                    B              0                          -0 
    18 CAPACITY[4,2]
                    B              0                          -0 
    19 CAPACITY[4,3]
                    B              0                          -0 
    20 CAPACITY[4,4]
                    NU             0                          -0         < eps

   No. Column name  St   Activity     Lower bound   Upper bound    Marginal
------ ------------ -- ------------- ------------- ------------- -------------
     1 TRAFFIC      B             28             0               
     2 x[1,2]       B             14             0               
     3 x[2,2]       B              0             0               
     4 x[3,2]       B              0             0               
     5 x[4,2]       NL             0             0                          -1 
     6 x[2,1]       B              0             0               
     7 x[2,3]       B              4             0               
     8 x[2,4]       B             10             0               
     9 x[1,3]       B             14             0               
    10 x[3,3]       B              0             0               
    11 x[4,3]       NL             0             0                          -1 
    12 x[3,1]       B              0             0               
    13 x[3,4]       B             18             0               
    14 x[1,1]       B              0             0               
    15 x[4,1]       NL             0             0                          -1 
    16 x[1,4]       B              0             0               
    17 x[4,4]       B              0             0               

Karush-Kuhn-Tucker optimality conditions:

KKT.PE: max.abs.err = 0.00e+00 on row 0
        max.rel.err = 0.00e+00 on row 0
        High quality

KKT.PB: max.abs.err = 0.00e+00 on row 0
        max.rel.err = 0.00e+00 on row 0
        High quality

KKT.DE: max.abs.err = 0.00e+00 on column 0
        max.rel.err = 0.00e+00 on column 0
        High quality

KKT.DB: max.abs.err = 0.00e+00 on row 0
        max.rel.err = 0.00e+00 on row 0
        High quality

End of output
